CMD:
./solvers/bin/cadical --plain --no-reduce -t 1600 ./data/cnfs//oski15a10b11s/oski15a10b11s.99.cnf

c --- [ banner ] -------------------------------------------------------------
c 
c CaDiCaL SAT Solver
c Copyright (c) 2016-2024
c A. Biere, M. Fleury, N. Froleyks, K. Fazekas, F. Pollitt, T. Faller
c JKU Linz, University of Freiburg, TU Wien
c 
c Version 2.1.3 5296d3d2a9bf48c154ab2acb5e44625776d821bf
c g++ (Gentoo 12.3.1_p20230526 p2) 12.3.1 20230526 -Wall -Wextra -O3 -DNDEBUG
c Sat Aug 9 07:26:21 PDT 2025 Linux cedar2.int.cedar.computecanada.ca 5.14.0-362.24.2.el9_3.x86_64 x86_64
c 
c --- [ limit ] --------------------------------------------------------------
c 
c setting time limit to 1600 seconds real time (due to '-t 1600')
c 
c --- [ parsing input ] ------------------------------------------------------
c 
c reading DIMACS file from './data/cnfs//oski15a10b11s/oski15a10b11s.99.cnf'
c opening file to read './data/cnfs//oski15a10b11s/oski15a10b11s.99.cnf'
c found 'p cnf 5458231 15914615' header
c parsed 15914615 clauses in 2.36 seconds process time
c 
c --- [ options ] ------------------------------------------------------------
c 
c   --compact=false                (different from default 'true')
c   --decompose=false              (different from default 'true')
c   --deduplicate=false            (different from default 'true')
c   --elim=false                   (different from default 'true')
c   --probe=false                  (different from default 'true')
c   --reduce=false                 (different from default 'true')
c   --subsume=false                (different from default 'true')
c   --ternary=false                (different from default 'true')
c   --transred=false               (different from default 'true')
c   --vivify=false                 (different from default 'true')
c 
c --- [ solving ] ------------------------------------------------------------
c 
c time measured in process time since initialization
c 
c  seconds    reductions  redundant   irredundant
c          MB     restarts       trail          variables
c            level   conflicts       glue             remaining
c 
c *  2.36 2149  0 0   0    0    0  0% 0 12780005 3965390 73%
c {  2.45 2154  0 0   0    0    0  0% 0 12780005 3965390 73%
c i  3.54 2155 403 0  15  439  409 28% 2 12780005 3965382 73%
c i  3.54 2155 401 0  15  441  409 28% 2 12780005 3965373 73%
c }  3.79 2156 284 0  63 1001  874 28% 2 12780005 3965373 73%
c [  3.79 2156  0 0  63 1001  874  0% 0 12780005 3965373 73%
c O  3.80 2156  5 0  63 1002  875 27% 1 12780005 3965373 73%
c ] 12.63 2196 23881 0  64 3001 2865 60% 2 12780005 3965373 73%
c { 12.63 2196 284 0  64 3001 2865 28% 2 12780005 3965373 73%
c F 12.81 2196 430 0  64 3005 2869 29% 2 12780005 3965373 73%
c i 12.82 2196 426 0  64 3014 2876 29% 2 12780005 3965355 73%
c i 13.56 2196 274 0 144 3884 3728 28% 2 12780005 3965353 73%
c i 13.79 2196 270 0 167 3968 3809 28% 2 12780005 3965350 73%
c i 13.83 2196 274 0 188 4088 3928 28% 3 12780005 3965345 73%
c i 14.00 2196 272 0 203 4140 3973 28% 3 12780005 3965341 73%
c i 14.00 2196 272 0 203 4141 3973 28% 3 12780005 3965337 73%
c i 14.51 2196 275 0 211 4222 4043 29% 3 12780005 3965321 73%
c i 14.52 2196 272 0 219 4251 4069 29% 3 12780005 3965319 73%
c i 14.56 2196 270 0 226 4275 4090 29% 3 12780005 3965317 73%
c i 14.71 2196 274 0 230 4330 4142 29% 3 12780005 3965313 73%
c 
c  seconds     reductions  redundant   irredundant
c          MB      restarts       trail          variables
c             level   conflicts       glue             remaining
c 
c i 14.72 2196 277 0 230 4334 4144 29% 3 12780005 3965309 73%
c i 14.72 2196 279 0 230 4338 4146 29% 3 12780005 3965305 73%
c i 14.73 2196 282 0 230 4342 4148 29% 3 12780005 3965301 73%
c i 14.73 2196 284 0 230 4346 4150 29% 3 12780005 3965297 73%
c i 14.74 2196 285 0 232 4361 4163 29% 3 12780005 3964987 73%
c i 15.10 2196 286 0 247 4425 4221 29% 3 12780005 3964983 73%
c i 15.15 2196 287 0 247 4429 4223 29% 3 12780005 3964979 73%
c i 15.21 2196 288 0 247 4433 4225 29% 3 12780005 3964975 73%
c i 15.37 2196 279 0 271 4577 4357 29% 3 12780005 3964970 73%
c i 15.37 2196 278 0 271 4581 4358 29% 3 12780005 3964964 73%
c i 15.39 2196 264 0 285 4749 4505 29% 3 12780005 3964956 73%
c i 15.39 2196 264 0 285 4755 4510 29% 3 12780005 3964949 73%
c i 15.40 2196 262 0 285 4806 4557 29% 3 12780005 3964945 73%
c i 15.80 2196 284 0 332 5273 5004 29% 3 12780005 3964938 73%
c i 15.82 2196 284 0 333 5280 5009 29% 3 12780005 3964932 73%
c i 15.94 2196 279 0 356 5366 5088 29% 3 12780005 3964923 73%
c i 15.96 2196 277 0 362 5395 5111 29% 3 12780005 3964915 73%
c i 16.13 2196 264 0 372 5670 5362 29% 3 12780005 3964905 73%
c # 16.63 2196 255 0 413 6009 5680 29% 3 12780005 3964905 73%
c i 16.69 2196 254 0 414 6055 5723 29% 3 12780005 3964894 73%
c 
c  seconds     reductions  redundant   irredundant
c          MB      restarts       trail          variables
c             level   conflicts       glue             remaining
c 
c i 16.89 2196 248 0 438 6228 5879 29% 3 12780005 3964886 73%
c i 16.89 2196 247 0 438 6233 5883 29% 3 12780005 3964876 73%
c i 16.89 2196 247 0 438 6247 5895 29% 3 12780005 3964875 73%
c i 16.96 2196 243 0 459 6338 5982 29% 3 12780005 3964867 73%
... skipped 2681 lines ...
c i 1427.64 2702 147 0 97642 1507302 1370384 30% 7 9899444 3938504 72%
c i 1429.56 2702 146 0 97836 1509888 1372792 30% 7 9899444 3938498 72%
c i 1429.71 2702 146 0 97846 1510538 1373359 30% 7 9899444 3938497 72%
c i 1429.79 2702 145 0 97851 1511012 1373716 30% 7 9899444 3938496 72%
c i 1430.08 2702 145 0 97878 1511856 1374463 30% 6 9899444 3938493 72%
c i 1430.08 2702 145 0 97878 1511865 1374470 30% 6 9899444 3938487 72%
c i 1430.09 2702 145 0 97878 1512027 1374613 30% 6 9899444 3938484 72%
c i 1430.09 2702 145 0 97878 1512057 1374637 30% 6 9899444 3938481 72%
c i 1430.09 2702 145 0 97878 1512060 1374639 30% 6 9899444 3938478 72%
c i 1430.09 2702 145 0 97878 1512069 1374646 30% 6 9899444 3938475 72%
c 
c   seconds      reductions         redundant    irredundant
c            MB       restarts              trail         variables
c               level       conflicts           glue            remaining
c 
c i 1430.09 2702 144 0 97878 1512207 1374764 30% 6 9899444 3938467 72%
c i 1430.09 2702 144 0 97878 1512275 1374811 30% 6 9899444 3938463 72%
c i 1430.21 2702 144 0 97883 1513026 1375489 30% 6 9899444 3938452 72%
c i 1431.10 2702 143 0 97949 1515214 1377475 30% 6 9899444 3938449 72%
c i 1432.36 2702 142 0 98090 1517369 1379500 30% 6 9899444 3938441 72%
c i 1444.02 2702 141 0 98996 1523887 1385555 30% 7 9899444 3938420 72%
c B 1475.00 2702 139 0 101423 1540101 1400701 30% 7 9899444 3938420 72%
c i 1475.80 2702 143 0 101428 1540567 1401118 30% 7 9899444 3938357 72%
c i 1475.81 2702 143 0 101428 1540589 1401134 30% 7 9899444 3938252 72%
c i 1476.30 2704 146 0 101477 1542990 1403371 30% 7 9899444 3938245 72%
c i 1476.30 2704 146 0 101477 1542998 1403378 30% 7 9899444 3938238 72%
c i 1476.72 2704 148 0 101531 1545393 1405564 30% 7 9899444 3938232 72%
c i 1476.73 2704 148 0 101531 1545427 1405594 30% 7 9899444 3938223 72%
c i 1476.73 2704 148 0 101531 1545430 1405596 30% 7 9899444 3938220 72%
c i 1476.73 2704 148 0 101531 1545431 1405596 30% 7 9899444 3938217 72%
c i 1479.43 2704 150 0 101768 1551835 1411511 30% 7 9899444 3938211 72%
c i 1490.18 2704 153 0 102739 1562679 1421534 30% 7 9899444 3938201 72%
c i 1521.92 2704 150 0 105241 1580836 1438515 30% 7 9899444 3938192 72%
c i 1534.02 2704 148 0 106300 1587526 1444744 30% 7 9899444 3938188 72%
c i 1538.14 2704 148 0 106543 1588974 1446103 30% 7 9899444 3938168 72%
c 
c   seconds      reductions          redundant    irredundant
c            MB       restarts               trail         variables
c               level        conflicts           glue            remaining
c 
c i 1546.59 2704 148 0 107112 1592214 1449111 30% 7 9899444 3938164 72%
c W 1560.29 2717 146 0 107924 1596103 1449649 30% 7 9896824 3938164 72%
c i 1572.32 2717 145 0 108671 1601155 1454334 30% 7 9896824 3938163 72%
c i 1578.34 2717 144 0 109103 1604513 1457445 30% 7 9896824 3938138 72%
c } 1593.15 2717 144 0 110037 1610277 1462880 30% 7 9896824 3938138 72%
c ? 1593.15 2717 144 0 110037 1610277 1462880 30% 7 9896824 3938138 72%
c 
c --- [ result ] -------------------------------------------------------------
c 
c UNKNOWN
c 
c --- [ run-time profiling ] -------------------------------------------------
c 
c process time taken by individual solving procedures
c (percentage relative to process time for solving)
c 
c      1590.79  100.00% search
c      1204.98   75.75% unstable
c       345.47   21.72% stable
c        40.25    2.53% walk
c         2.36    0.15% parse
c         0.09    0.01% lucky
c         0.00    0.00% simplify
c   =================================
c      1590.79   99.85% solve
c 
c last line shows process time for solving
c (percentage relative to total process time)
c 
c --- [ statistics ] ---------------------------------------------------------
c 
c chronological:            623579        38.72 %  of conflicts
c conflicts:               1610277      1012.25    per second
c decisions:              19259631     12106.97    per second
c fixed:                   1520093        27.85 %  of all variables
c learned:                 1555370        96.59 %  per conflict
c learned_lits:           68107839       100.00 %  learned literals
c minimized:                     0         0.00 %  learned literals
c shrunken:                7028823        10.32 %  learned literals
c minishrunken:           13578972        19.94 %  learned literals
c otfs:                       8190         0.51 %  of conflict
c propagations:        14747286620         9.27 M  per second
c rephased:                     56     28754.95    interval
c restarts:                 110037        14.63    interval
c stabilizing:                   5        42.34 %  of conflicts
c subsumed:                  71977         0.50 %  of all clauses
c strengthened:               7841         0.05 %  of all clauses
c walked:                       18     89459.83    interval
c 
c seconds are measured in process time for solving
c 
c --- [ resources ] ----------------------------------------------------------
c 
c total process time since initialization:      1593.15    seconds
c total real time since initialization:         1600.01    seconds
c maximum resident set size of process:         3226.61    MB
c 
c --- [ shutting down ] ------------------------------------------------------
c 
c exit 0
